12 26
1 2 425
1 4 260
1 5 479
2 4 615
2 5 468
3 4 282
3 6 320
3 9 294
3 11 362
4 5 433
4 6 310
5 10 421
5 12 413
6 8 248
6 9 54
6 10 324
6 12 135
7 8 406
7 10 89
7 12 278
8 9 225
8 11 327
8 12 256
9 11 336
9 12 179
10 12 190
